Route 1: 0 15 47 98 80 61 39 66 0
Route 2: 0 64 30 82 20 26 22 79 63 0
Route 3: 0 34 59 23 40 16 85 55 53 71 86 11 7 0
Route 4: 0 45 6 33 32 57 4 65 90 68 48 0
Route 5: 0 14 94 96 41 84 58 5 27 37 0
Route 6: 0 92 91 60 29 100 43 77 52 2 74 0
Route 7: 0 78 44 42 12 54 3 51 19 17 28 70 83 0
Route 8: 0 1 99 38 18 81 62 50 56 72 73 13 35 0
Route 9: 0 87 31 75 21 93 76 8 97 69 24 10 89 0
Route 10: 0 9 88 36 95 67 46 25 49 0
